c Reduced graph for R75_1gb generated by Cyril Grelier
p edge 69 249
e 1 16
e 1 20
e 1 21
e 1 23
e 1 25
e 1 43
e 1 52
e 1 55
e 1 68
e 2 4
e 2 18
e 2 22
e 2 38
e 2 43
e 2 45
e 2 49
e 2 50
e 2 59
e 3 7
e 3 11
e 3 16
e 3 22
e 3 24
e 3 27
e 3 30
e 3 33
e 3 39
e 3 60
e 3 67
e 3 68
e 4 25
e 4 36
e 4 50
e 4 52
e 4 56
e 5 10
e 5 16
e 5 33
e 5 34
e 5 63
e 5 67
e 6 46
e 6 54
e 6 56
e 7 11
e 7 28
e 7 30
e 7 35
e 7 38
e 7 40
e 7 50
e 7 61
e 8 16
e 8 26
e 8 27
e 8 37
e 8 38
e 8 42
e 8 66
e 8 68
e 8 69
e 9 15
e 9 40
e 9 45
e 9 49
e 9 50
e 9 61
e 9 64
e 10 16
e 10 26
e 10 34
e 10 56
e 10 57
e 10 62
e 11 18
e 11 24
e 11 31
e 11 38
e 11 45
e 11 55
e 12 13
e 12 15
e 12 22
e 12 26
e 12 33
e 12 57
e 12 62
e 13 41
e 13 56
e 13 60
e 13 62
e 13 63
e 13 66
e 14 15
e 14 19
e 14 42
e 14 48
e 15 27
e 15 33
e 15 34
e 15 36
e 15 45
e 15 53
e 15 56
e 15 61
e 16 21
e 16 45
e 16 48
e 16 52
e 16 65
e 17 20
e 17 28
e 17 32
e 17 45
e 17 49
e 17 52
e 17 56
e 17 59
e 17 64
e 18 19
e 18 23
e 18 32
e 18 50
e 18 53
e 18 65
e 19 21
e 19 23
e 19 33
e 19 42
e 19 66
e 19 69
e 20 34
e 20 35
e 20 43
e 20 47
e 20 48
e 21 29
e 21 50
e 21 59
e 21 63
e 22 30
e 22 41
e 22 66
e 23 26
e 23 48
e 24 29
e 24 37
e 24 38
e 25 32
e 25 36
e 25 38
e 25 39
e 25 40
e 25 49
e 25 50
e 26 32
e 26 34
e 26 49
e 26 63
e 27 42
e 27 56
e 27 61
e 27 64
e 28 35
e 28 40
e 28 60
e 29 31
e 29 35
e 29 36
e 29 44
e 29 47
e 29 60
e 29 67
e 29 69
e 30 34
e 30 35
e 30 49
e 30 59
e 31 39
e 31 41
e 31 53
e 31 64
e 32 58
e 33 45
e 33 51
e 33 52
e 33 54
e 33 63
e 34 38
e 34 45
e 34 66
e 34 67
e 35 36
e 35 47
e 35 51
e 35 69
e 36 56
e 36 59
e 36 66
e 37 50
e 37 51
e 37 58
e 37 61
e 37 65
e 38 56
e 38 62
e 39 41
e 39 48
e 39 55
e 40 47
e 40 51
e 40 53
e 40 55
e 40 59
e 41 46
e 41 49
e 41 59
e 42 44
e 42 64
e 43 48
e 43 50
e 43 63
e 44 47
e 44 55
e 44 59
e 46 57
e 46 68
e 47 49
e 47 51
e 47 52
e 47 54
e 48 65
e 49 61
e 49 63
e 51 57
e 51 60
e 51 68
e 52 62
e 53 55
e 53 64
e 54 60
e 55 64
e 55 66
e 56 58
e 56 59
e 59 60
e 59 66
e 62 67
e 67 69
